20 10
54 16 86 83 55 91 20 96 98 60
68 16 75 69 50 94 8 91 94 74
60 11 90 71 74 96 7 95 95 77
54 27 79 74 53 95 18 97 98 73
41 20 67 74 42 80 21 96 98 77
66 14 82 78 62 90 28 96 99 80
58 21 77 71 71 92 10 96 96 77
73 17 65 69 73 95 22 97 98 63
63 39 83 82 64 94 19 97 98 77
75 14 63 61 68 93 5 97 97 76
69 23 87 61 54 94 15 99 98 74
56 19 69 75 47 96 9 96 96 76
55 13 87 60 54 91 17 98 98 71
62 26 76 84 65 96 11 97 99 48
43 11 70 80 57 87 15 94 95 76
68 29 69 64 57 90 7 89 99 58
66 33 80 70 49 94 18 97 98 68
69 17 74 75 63 89 18 96 98 83
65 9 65 80 35 89 13 96 99 81
52 13 71 53 64 91 33 95 98 61
